(set-info :smt-lib-version 2.6)
(set-logic QF_NIA)
(set-info :source |
Generated by: Cristina Borralleras, Daniel Larraz, Albert Oliveras, Enric Rodriguez-Carbonell, Albert Rubio
Generated on: 2017-04-27
Generator: VeryMax
Application: Termination proving
Target solver: barcelogic
|)
(set-info :license "https://creativecommons.org/licenses/by/4.0/")
(set-info :category "industrial")
(set-info :status unknown)
(declare-fun Nl2arg11 () Int)
(declare-fun Nl2arg21 () Int)
(declare-fun Nl2arg31 () Int)
(declare-fun Nl2arg12 () Int)
(declare-fun Nl2arg22 () Int)
(declare-fun Nl2arg32 () Int)
(declare-fun Nl2arg13 () Int)
(declare-fun Nl2arg23 () Int)
(declare-fun Nl2arg33 () Int)
(declare-fun lam0n0 () Int)
(declare-fun lam0n1 () Int)
(declare-fun lam0n2 () Int)
(declare-fun lam0n3 () Int)
(declare-fun lam0n4 () Int)
(declare-fun lam0n5 () Int)
(declare-fun lam0n6 () Int)
(declare-fun lam0n7 () Int)
(declare-fun lam0n8 () Int)
(declare-fun lam0n9 () Int)
(declare-fun lam0n10 () Int)
(declare-fun lam0n11 () Int)
(declare-fun lam0n12 () Int)
(declare-fun Nl2CT1 () Int)
(declare-fun Nl2CT2 () Int)
(declare-fun Nl2CT3 () Int)
(declare-fun lam1n0 () Int)
(declare-fun lam1n1 () Int)
(declare-fun lam1n2 () Int)
(declare-fun lam1n3 () Int)
(declare-fun lam1n4 () Int)
(declare-fun lam1n5 () Int)
(declare-fun lam1n6 () Int)
(declare-fun lam1n7 () Int)
(declare-fun lam1n8 () Int)
(declare-fun lam1n9 () Int)
(declare-fun lam1n10 () Int)
(declare-fun lam1n11 () Int)
(declare-fun lam1n12 () Int)
(declare-fun lam2n0 () Int)
(declare-fun lam2n1 () Int)
(declare-fun lam2n2 () Int)
(declare-fun lam2n3 () Int)
(declare-fun lam2n4 () Int)
(declare-fun lam2n5 () Int)
(declare-fun lam2n6 () Int)
(declare-fun lam2n7 () Int)
(declare-fun lam2n8 () Int)
(declare-fun lam2n9 () Int)
(declare-fun lam2n10 () Int)
(declare-fun lam2n11 () Int)
(declare-fun lam2n12 () Int)
(declare-fun lam3n0 () Int)
(declare-fun lam3n1 () Int)
(declare-fun lam3n2 () Int)
(declare-fun lam3n3 () Int)
(declare-fun lam3n4 () Int)
(declare-fun lam3n5 () Int)
(declare-fun lam3n6 () Int)
(declare-fun lam3n7 () Int)
(declare-fun lam3n8 () Int)
(declare-fun lam3n9 () Int)
(declare-fun lam3n10 () Int)
(declare-fun lam3n11 () Int)
(declare-fun lam3n12 () Int)
(declare-fun lam4n0 () Int)
(declare-fun lam4n1 () Int)
(declare-fun lam4n2 () Int)
(declare-fun lam4n3 () Int)
(declare-fun lam4n4 () Int)
(declare-fun lam4n5 () Int)
(declare-fun lam4n6 () Int)
(declare-fun lam5n0 () Int)
(declare-fun lam5n1 () Int)
(declare-fun lam5n2 () Int)
(declare-fun lam5n3 () Int)
(declare-fun lam5n4 () Int)
(declare-fun lam5n5 () Int)
(declare-fun lam5n6 () Int)
(declare-fun lam6n0 () Int)
(declare-fun lam6n1 () Int)
(declare-fun lam6n2 () Int)
(declare-fun lam6n3 () Int)
(declare-fun lam6n4 () Int)
(declare-fun lam6n5 () Int)
(declare-fun lam6n6 () Int)
(declare-fun undef1 () Int)
(declare-fun undef170 () Int)
(declare-fun undef171 () Int)
(declare-fun arg1 () Int)
(declare-fun arg2 () Int)
(declare-fun arg3 () Int)
(declare-fun lam10n0 () Int)
(declare-fun lam10n1 () Int)
(declare-fun lam10n2 () Int)
(declare-fun lam10n3 () Int)
(declare-fun lam10n4 () Int)
(declare-fun lam10n5 () Int)
(declare-fun lam10n6 () Int)
(declare-fun lam10n7 () Int)
(declare-fun lam10n8 () Int)
(declare-fun lam10n9 () Int)
(declare-fun lam10n10 () Int)
(declare-fun lam10n11 () Int)
(declare-fun lam10n12 () Int)
(declare-fun lam10n13 () Int)
(declare-fun lam10n14 () Int)
(declare-fun RFN1_CT () Int)
(declare-fun RFN1_arg1 () Int)
(declare-fun RFN1_arg2 () Int)
(declare-fun RFN1_arg3 () Int)
(declare-fun lam8n0 () Int)
(declare-fun lam8n1 () Int)
(declare-fun lam8n2 () Int)
(declare-fun lam8n3 () Int)
(declare-fun lam8n4 () Int)
(declare-fun lam8n5 () Int)
(declare-fun lam8n6 () Int)
(declare-fun lam8n7 () Int)
(declare-fun lam8n8 () Int)
(declare-fun lam8n9 () Int)
(declare-fun lam8n10 () Int)
(declare-fun lam8n11 () Int)
(declare-fun lam8n12 () Int)
(declare-fun lam8n13 () Int)
(declare-fun lam8n14 () Int)
(declare-fun lam9n0 () Int)
(declare-fun lam9n1 () Int)
(declare-fun lam9n2 () Int)
(declare-fun lam9n3 () Int)
(declare-fun lam9n4 () Int)
(declare-fun lam9n5 () Int)
(declare-fun lam9n6 () Int)
(declare-fun lam9n7 () Int)
(declare-fun lam9n8 () Int)
(declare-fun lam9n9 () Int)
(declare-fun lam9n10 () Int)
(declare-fun lam9n11 () Int)
(declare-fun lam9n12 () Int)
(declare-fun lam9n13 () Int)
(declare-fun lam9n14 () Int)
(declare-fun lam7n0 () Int)
(declare-fun lam7n1 () Int)
(declare-fun lam7n2 () Int)
(declare-fun lam7n3 () Int)
(declare-fun lam7n4 () Int)
(declare-fun lam7n5 () Int)
(declare-fun lam7n6 () Int)
(declare-fun lam7n7 () Int)
(declare-fun lam7n8 () Int)
(declare-fun lam7n9 () Int)
(declare-fun lam7n10 () Int)
(declare-fun lam7n11 () Int)
(declare-fun lam7n12 () Int)
(declare-fun lam7n13 () Int)
(declare-fun lam7n14 () Int)
(assert ( and ( <= ( - 1 ) Nl2arg11 ) ( <= Nl2arg11 1 ) ( <= ( - 1 ) Nl2arg21 ) ( <= Nl2arg21 1 ) ( <= ( - 1 ) Nl2arg31 ) ( <= Nl2arg31 1 ) ( <= ( - 1 ) Nl2arg12 ) ( <= Nl2arg12 1 ) ( <= ( - 1 ) Nl2arg22 ) ( <= Nl2arg22 1 ) ( <= ( - 1 ) Nl2arg32 ) ( <= Nl2arg32 1 ) ( <= ( - 1 ) Nl2arg13 ) ( <= Nl2arg13 1 ) ( <= ( - 1 ) Nl2arg23 ) ( <= Nl2arg23 1 ) ( <= ( - 1 ) Nl2arg33 ) ( <= Nl2arg33 1 ) ))
(assert ( or ( and ( >= lam0n0 0 ) ( >= lam0n1 0 ) ( >= lam0n2 0 ) ( >= lam0n3 0 ) ( >= lam0n4 0 ) ( >= lam0n5 0 ) ( >= lam0n6 0 ) ( >= lam0n7 0 ) ( >= lam0n8 0 ) ( >= lam0n9 0 ) ( >= lam0n10 0 ) ( >= lam0n11 0 ) ( >= lam0n12 0 ) ( > ( + ( * 1 lam0n0 ) ( * 1 lam0n1 ) ( * 1 lam0n2 ) ( * 1 lam0n3 ) ( * 1 lam0n4 ) ( * 1 lam0n5 ) ( * Nl2CT1 lam0n10 ) ( * Nl2CT2 lam0n11 ) ( * Nl2CT3 lam0n12 ) ( - 1 ) ) 0 ) ( = ( + ( * ( - 1 ) lam0n0 ) ( * ( - 1 ) lam0n1 ) ( * Nl2arg11 lam0n10 ) ( * Nl2arg12 lam0n11 ) ( * Nl2arg13 lam0n12 ) ) 0 ) ( = ( + ( * ( - 1 ) lam0n1 ) ( * 1 lam0n2 ) ( * 1 lam0n3 ) ( * ( - 1 ) lam0n6 ) ( * Nl2arg21 lam0n10 ) ( * Nl2arg22 lam0n11 ) ( * Nl2arg23 lam0n12 ) ) 0 ) ( = ( + ( * 1 lam0n4 ) ( * 1 lam0n6 ) ( * ( - 1 ) lam0n7 ) ( * Nl2arg31 lam0n10 ) ( * Nl2arg32 lam0n11 ) ( * Nl2arg33 lam0n12 ) ) 0 ) ( = ( + ( * ( - 1 ) lam0n2 ) ( * ( - 1 ) lam0n4 ) ( * ( - 1 ) lam0n8 ) ) 0 ) ( = ( * ( - 1 ) lam0n9 ) 0 ) ( = ( * ( - 1 ) lam0n5 ) 0 ) ( = ( * ( - 1 ) lam0n3 ) 0 ) ) ( and ( >= lam1n0 0 ) ( >= lam1n1 0 ) ( >= lam1n2 0 ) ( >= lam1n3 0 ) ( >= lam1n4 0 ) ( >= lam1n5 0 ) ( >= lam1n6 0 ) ( >= lam1n7 0 ) ( >= lam1n8 0 ) ( >= lam1n9 0 ) ( >= lam1n10 0 ) ( >= lam1n11 0 ) ( >= lam1n12 0 ) ( > ( + ( * 1 lam1n0 ) ( * 1 lam1n1 ) ( * 1 lam1n2 ) ( * 1 lam1n3 ) ( * 1 lam1n4 ) ( * 1 lam1n5 ) ( * Nl2CT1 lam1n10 ) ( * Nl2CT2 lam1n11 ) ( * Nl2CT3 lam1n12 ) ( - 1 ( + ( + ( + Nl2CT1 ( * Nl2arg11 0 ) ) ( * Nl2arg21 1 ) ) ( * Nl2arg31 1 ) ) ) ) 0 ) ( = ( + ( * ( - 1 ) lam1n0 ) ( * ( - 1 ) lam1n1 ) ( * Nl2arg11 lam1n10 ) ( * Nl2arg12 lam1n11 ) ( * Nl2arg13 lam1n12 ) ) 0 ) ( = ( + ( * ( - 1 ) lam1n1 ) ( * 1 lam1n2 ) ( * 1 lam1n3 ) ( * ( - 1 ) lam1n6 ) ( * Nl2arg21 lam1n10 ) ( * Nl2arg22 lam1n11 ) ( * Nl2arg23 lam1n12 ) ( - ( + 0 ( * Nl2arg21 1 ) ) ) ) 0 ) ( = ( + ( * 1 lam1n4 ) ( * 1 lam1n6 ) ( * ( - 1 ) lam1n7 ) ( * Nl2arg31 lam1n10 ) ( * Nl2arg32 lam1n11 ) ( * Nl2arg33 lam1n12 ) ( - ( + 0 ( * Nl2arg31 1 ) ) ) ) 0 ) ( = ( + ( * ( - 1 ) lam1n2 ) ( * ( - 1 ) lam1n4 ) ( * ( - 1 ) lam1n8 ) ) 0 ) ( = ( * ( - 1 ) lam1n9 ) 0 ) ( = ( + ( * ( - 1 ) lam1n5 ) ( - ( + 0 ( * Nl2arg11 1 ) ) ) ) 0 ) ( = ( * ( - 1 ) lam1n3 ) 0 ) ) ))
(assert ( or ( and ( >= lam0n0 0 ) ( >= lam0n1 0 ) ( >= lam0n2 0 ) ( >= lam0n3 0 ) ( >= lam0n4 0 ) ( >= lam0n5 0 ) ( >= lam0n6 0 ) ( >= lam0n7 0 ) ( >= lam0n8 0 ) ( >= lam0n9 0 ) ( >= lam0n10 0 ) ( >= lam0n11 0 ) ( >= lam0n12 0 ) ( > ( + ( * 1 lam0n0 ) ( * 1 lam0n1 ) ( * 1 lam0n2 ) ( * 1 lam0n3 ) ( * 1 lam0n4 ) ( * 1 lam0n5 ) ( * Nl2CT1 lam0n10 ) ( * Nl2CT2 lam0n11 ) ( * Nl2CT3 lam0n12 ) ( - 1 ) ) 0 ) ( = ( + ( * ( - 1 ) lam0n0 ) ( * ( - 1 ) lam0n1 ) ( * Nl2arg11 lam0n10 ) ( * Nl2arg12 lam0n11 ) ( * Nl2arg13 lam0n12 ) ) 0 ) ( = ( + ( * ( - 1 ) lam0n1 ) ( * 1 lam0n2 ) ( * 1 lam0n3 ) ( * ( - 1 ) lam0n6 ) ( * Nl2arg21 lam0n10 ) ( * Nl2arg22 lam0n11 ) ( * Nl2arg23 lam0n12 ) ) 0 ) ( = ( + ( * 1 lam0n4 ) ( * 1 lam0n6 ) ( * ( - 1 ) lam0n7 ) ( * Nl2arg31 lam0n10 ) ( * Nl2arg32 lam0n11 ) ( * Nl2arg33 lam0n12 ) ) 0 ) ( = ( + ( * ( - 1 ) lam0n2 ) ( * ( - 1 ) lam0n4 ) ( * ( - 1 ) lam0n8 ) ) 0 ) ( = ( * ( - 1 ) lam0n9 ) 0 ) ( = ( * ( - 1 ) lam0n5 ) 0 ) ( = ( * ( - 1 ) lam0n3 ) 0 ) ) ( and ( >= lam2n0 0 ) ( >= lam2n1 0 ) ( >= lam2n2 0 ) ( >= lam2n3 0 ) ( >= lam2n4 0 ) ( >= lam2n5 0 ) ( >= lam2n6 0 ) ( >= lam2n7 0 ) ( >= lam2n8 0 ) ( >= lam2n9 0 ) ( >= lam2n10 0 ) ( >= lam2n11 0 ) ( >= lam2n12 0 ) ( > ( + ( * 1 lam2n0 ) ( * 1 lam2n1 ) ( * 1 lam2n2 ) ( * 1 lam2n3 ) ( * 1 lam2n4 ) ( * 1 lam2n5 ) ( * Nl2CT1 lam2n10 ) ( * Nl2CT2 lam2n11 ) ( * Nl2CT3 lam2n12 ) ( - 1 ( + ( + ( + Nl2CT2 ( * Nl2arg12 0 ) ) ( * Nl2arg22 1 ) ) ( * Nl2arg32 1 ) ) ) ) 0 ) ( = ( + ( * ( - 1 ) lam2n0 ) ( * ( - 1 ) lam2n1 ) ( * Nl2arg11 lam2n10 ) ( * Nl2arg12 lam2n11 ) ( * Nl2arg13 lam2n12 ) ) 0 ) ( = ( + ( * ( - 1 ) lam2n1 ) ( * 1 lam2n2 ) ( * 1 lam2n3 ) ( * ( - 1 ) lam2n6 ) ( * Nl2arg21 lam2n10 ) ( * Nl2arg22 lam2n11 ) ( * Nl2arg23 lam2n12 ) ( - ( + 0 ( * Nl2arg22 1 ) ) ) ) 0 ) ( = ( + ( * 1 lam2n4 ) ( * 1 lam2n6 ) ( * ( - 1 ) lam2n7 ) ( * Nl2arg31 lam2n10 ) ( * Nl2arg32 lam2n11 ) ( * Nl2arg33 lam2n12 ) ( - ( + 0 ( * Nl2arg32 1 ) ) ) ) 0 ) ( = ( + ( * ( - 1 ) lam2n2 ) ( * ( - 1 ) lam2n4 ) ( * ( - 1 ) lam2n8 ) ) 0 ) ( = ( * ( - 1 ) lam2n9 ) 0 ) ( = ( + ( * ( - 1 ) lam2n5 ) ( - ( + 0 ( * Nl2arg12 1 ) ) ) ) 0 ) ( = ( * ( - 1 ) lam2n3 ) 0 ) ) ))
(assert ( or ( and ( >= lam0n0 0 ) ( >= lam0n1 0 ) ( >= lam0n2 0 ) ( >= lam0n3 0 ) ( >= lam0n4 0 ) ( >= lam0n5 0 ) ( >= lam0n6 0 ) ( >= lam0n7 0 ) ( >= lam0n8 0 ) ( >= lam0n9 0 ) ( >= lam0n10 0 ) ( >= lam0n11 0 ) ( >= lam0n12 0 ) ( > ( + ( * 1 lam0n0 ) ( * 1 lam0n1 ) ( * 1 lam0n2 ) ( * 1 lam0n3 ) ( * 1 lam0n4 ) ( * 1 lam0n5 ) ( * Nl2CT1 lam0n10 ) ( * Nl2CT2 lam0n11 ) ( * Nl2CT3 lam0n12 ) ( - 1 ) ) 0 ) ( = ( + ( * ( - 1 ) lam0n0 ) ( * ( - 1 ) lam0n1 ) ( * Nl2arg11 lam0n10 ) ( * Nl2arg12 lam0n11 ) ( * Nl2arg13 lam0n12 ) ) 0 ) ( = ( + ( * ( - 1 ) lam0n1 ) ( * 1 lam0n2 ) ( * 1 lam0n3 ) ( * ( - 1 ) lam0n6 ) ( * Nl2arg21 lam0n10 ) ( * Nl2arg22 lam0n11 ) ( * Nl2arg23 lam0n12 ) ) 0 ) ( = ( + ( * 1 lam0n4 ) ( * 1 lam0n6 ) ( * ( - 1 ) lam0n7 ) ( * Nl2arg31 lam0n10 ) ( * Nl2arg32 lam0n11 ) ( * Nl2arg33 lam0n12 ) ) 0 ) ( = ( + ( * ( - 1 ) lam0n2 ) ( * ( - 1 ) lam0n4 ) ( * ( - 1 ) lam0n8 ) ) 0 ) ( = ( * ( - 1 ) lam0n9 ) 0 ) ( = ( * ( - 1 ) lam0n5 ) 0 ) ( = ( * ( - 1 ) lam0n3 ) 0 ) ) ( and ( >= lam3n0 0 ) ( >= lam3n1 0 ) ( >= lam3n2 0 ) ( >= lam3n3 0 ) ( >= lam3n4 0 ) ( >= lam3n5 0 ) ( >= lam3n6 0 ) ( >= lam3n7 0 ) ( >= lam3n8 0 ) ( >= lam3n9 0 ) ( >= lam3n10 0 ) ( >= lam3n11 0 ) ( >= lam3n12 0 ) ( > ( + ( * 1 lam3n0 ) ( * 1 lam3n1 ) ( * 1 lam3n2 ) ( * 1 lam3n3 ) ( * 1 lam3n4 ) ( * 1 lam3n5 ) ( * Nl2CT1 lam3n10 ) ( * Nl2CT2 lam3n11 ) ( * Nl2CT3 lam3n12 ) ( - 1 ( + ( + ( + Nl2CT3 ( * Nl2arg13 0 ) ) ( * Nl2arg23 1 ) ) ( * Nl2arg33 1 ) ) ) ) 0 ) ( = ( + ( * ( - 1 ) lam3n0 ) ( * ( - 1 ) lam3n1 ) ( * Nl2arg11 lam3n10 ) ( * Nl2arg12 lam3n11 ) ( * Nl2arg13 lam3n12 ) ) 0 ) ( = ( + ( * ( - 1 ) lam3n1 ) ( * 1 lam3n2 ) ( * 1 lam3n3 ) ( * ( - 1 ) lam3n6 ) ( * Nl2arg21 lam3n10 ) ( * Nl2arg22 lam3n11 ) ( * Nl2arg23 lam3n12 ) ( - ( + 0 ( * Nl2arg23 1 ) ) ) ) 0 ) ( = ( + ( * 1 lam3n4 ) ( * 1 lam3n6 ) ( * ( - 1 ) lam3n7 ) ( * Nl2arg31 lam3n10 ) ( * Nl2arg32 lam3n11 ) ( * Nl2arg33 lam3n12 ) ( - ( + 0 ( * Nl2arg33 1 ) ) ) ) 0 ) ( = ( + ( * ( - 1 ) lam3n2 ) ( * ( - 1 ) lam3n4 ) ( * ( - 1 ) lam3n8 ) ) 0 ) ( = ( * ( - 1 ) lam3n9 ) 0 ) ( = ( + ( * ( - 1 ) lam3n5 ) ( - ( + 0 ( * Nl2arg13 1 ) ) ) ) 0 ) ( = ( * ( - 1 ) lam3n3 ) 0 ) ) ))
(assert ( and ( <= ( + 1 ( * ( - 1 ) undef1 ) ) 0 ) ( <= ( + 1 ( * ( - 1 ) undef170 ) ) 0 ) ( <= ( + undef1 ( * ( - 1 ) undef170 ) ) 0 ) ( <= ( * ( - 1 ) undef171 ) 0 ) ( = ( + arg1 ( * ( - 1 ) undef1 ) ) 0 ) ( = arg2 0 ) ( = arg3 0 ) ( <= ( + Nl2CT1 ( * ( + 0 Nl2arg11 ) arg1 ) ( * ( + 0 Nl2arg21 ) arg2 ) ( * ( + 0 Nl2arg31 ) arg3 ) ) 0 ) ( <= ( + Nl2CT2 ( * ( + 0 Nl2arg12 ) arg1 ) ( * ( + 0 Nl2arg22 ) arg2 ) ( * ( + 0 Nl2arg32 ) arg3 ) ) 0 ) ( <= ( + Nl2CT3 ( * ( + 0 Nl2arg13 ) arg1 ) ( * ( + 0 Nl2arg23 ) arg2 ) ( * ( + 0 Nl2arg33 ) arg3 ) ) 0 ) ( <= ( + ( - 1 ) ( * ( - 1 ) arg3 ) ) 0 ) ( <= ( + 1 ( * ( - 1 ) arg1 ) ( * ( - 1 ) arg2 ) ) 0 ) ))
(assert ( or ( and ( and ( >= lam10n0 0 ) ( >= lam10n1 0 ) ( >= lam10n2 0 ) ( >= lam10n3 0 ) ( >= lam10n4 0 ) ( >= lam10n5 0 ) ( >= lam10n6 0 ) ( >= lam10n7 0 ) ( >= lam10n8 0 ) ( >= lam10n9 0 ) ( >= lam10n10 0 ) ( >= lam10n11 0 ) ( >= lam10n12 0 ) ( >= lam10n13 0 ) ( >= lam10n14 0 ) ( > ( + ( * 1 lam10n0 ) ( * 1 lam10n1 ) ( * 1 lam10n2 ) ( * 1 lam10n3 ) ( * 1 lam10n4 ) ( * 1 lam10n5 ) ( * 50001 lam10n10 ) ( * 50001 lam10n11 ) ( * Nl2CT1 lam10n12 ) ( * Nl2CT2 lam10n13 ) ( * Nl2CT3 lam10n14 ) ( - 1 ( - ( + ( + ( + RFN1_CT ( * RFN1_arg1 0 ) ) ( * RFN1_arg2 1 ) ) ( * RFN1_arg3 1 ) ) RFN1_CT ) ) ) 0 ) ( = ( + ( * ( - 1 ) lam10n0 ) ( * ( - 1 ) lam10n1 ) ( * Nl2arg11 lam10n12 ) ( * Nl2arg12 lam10n13 ) ( * Nl2arg13 lam10n14 ) ( - ( - RFN1_arg1 ) ) ) 0 ) ( = ( + ( * ( - 1 ) lam10n1 ) ( * 1 lam10n2 ) ( * 1 lam10n3 ) ( * ( - 1 ) lam10n6 ) ( * 1 lam10n10 ) ( * ( - 1 ) lam10n11 ) ( * Nl2arg21 lam10n12 ) ( * Nl2arg22 lam10n13 ) ( * Nl2arg23 lam10n14 ) ( - ( - ( + 0 ( * RFN1_arg2 1 ) ) RFN1_arg2 ) ) ) 0 ) ( = ( + ( * 1 lam10n4 ) ( * 1 lam10n6 ) ( * ( - 1 ) lam10n7 ) ( * ( - 2 ) lam10n10 ) ( * Nl2arg31 lam10n12 ) ( * Nl2arg32 lam10n13 ) ( * Nl2arg33 lam10n14 ) ( - ( - ( + 0 ( * RFN1_arg3 1 ) ) RFN1_arg3 ) ) ) 0 ) ( = ( + ( * ( - 1 ) lam10n2 ) ( * ( - 1 ) lam10n4 ) ( * ( - 1 ) lam10n8 ) ) 0 ) ( = ( * ( - 1 ) lam10n9 ) 0 ) ( = ( + ( * ( - 1 ) lam10n5 ) ( - ( + 0 ( * RFN1_arg1 1 ) ) ) ) 0 ) ( = ( * ( - 1 ) lam10n3 ) 0 ) ) ( and ( and ( >= lam8n0 0 ) ( >= lam8n1 0 ) ( >= lam8n2 0 ) ( >= lam8n3 0 ) ( >= lam8n4 0 ) ( >= lam8n5 0 ) ( >= lam8n6 0 ) ( >= lam8n7 0 ) ( >= lam8n8 0 ) ( >= lam8n9 0 ) ( >= lam8n10 0 ) ( >= lam8n11 0 ) ( >= lam8n12 0 ) ( >= lam8n13 0 ) ( >= lam8n14 0 ) ( > ( + ( * 1 lam8n0 ) ( * 1 lam8n1 ) ( * 1 lam8n2 ) ( * 1 lam8n3 ) ( * 1 lam8n4 ) ( * 1 lam8n5 ) ( * 50001 lam8n10 ) ( * 50001 lam8n11 ) ( * Nl2CT1 lam8n12 ) ( * Nl2CT2 lam8n13 ) ( * Nl2CT3 lam8n14 ) ( - 1 ( - RFN1_CT ) ) ) 0 ) ( = ( + ( * ( - 1 ) lam8n0 ) ( * ( - 1 ) lam8n1 ) ( * Nl2arg11 lam8n12 ) ( * Nl2arg12 lam8n13 ) ( * Nl2arg13 lam8n14 ) ( - ( - RFN1_arg1 ) ) ) 0 ) ( = ( + ( * ( - 1 ) lam8n1 ) ( * 1 lam8n2 ) ( * 1 lam8n3 ) ( * ( - 1 ) lam8n6 ) ( * 1 lam8n10 ) ( * ( - 1 ) lam8n11 ) ( * Nl2arg21 lam8n12 ) ( * Nl2arg22 lam8n13 ) ( * Nl2arg23 lam8n14 ) ( - ( - RFN1_arg2 ) ) ) 0 ) ( = ( + ( * 1 lam8n4 ) ( * 1 lam8n6 ) ( * ( - 1 ) lam8n7 ) ( * ( - 2 ) lam8n10 ) ( * Nl2arg31 lam8n12 ) ( * Nl2arg32 lam8n13 ) ( * Nl2arg33 lam8n14 ) ( - ( - RFN1_arg3 ) ) ) 0 ) ( = ( + ( * ( - 1 ) lam8n2 ) ( * ( - 1 ) lam8n4 ) ( * ( - 1 ) lam8n8 ) ) 0 ) ( = ( * ( - 1 ) lam8n9 ) 0 ) ( = ( * ( - 1 ) lam8n5 ) 0 ) ( = ( * ( - 1 ) lam8n3 ) 0 ) ) ( and ( >= lam9n0 0 ) ( >= lam9n1 0 ) ( >= lam9n2 0 ) ( >= lam9n3 0 ) ( >= lam9n4 0 ) ( >= lam9n5 0 ) ( >= lam9n6 0 ) ( >= lam9n7 0 ) ( >= lam9n8 0 ) ( >= lam9n9 0 ) ( >= lam9n10 0 ) ( >= lam9n11 0 ) ( >= lam9n12 0 ) ( >= lam9n13 0 ) ( >= lam9n14 0 ) ( > ( + ( * 1 lam9n0 ) ( * 1 lam9n1 ) ( * 1 lam9n2 ) ( * 1 lam9n3 ) ( * 1 lam9n4 ) ( * 1 lam9n5 ) ( * 50001 lam9n10 ) ( * 50001 lam9n11 ) ( * Nl2CT1 lam9n12 ) ( * Nl2CT2 lam9n13 ) ( * Nl2CT3 lam9n14 ) ( - 1 ( + ( - ( + ( + ( + RFN1_CT ( * RFN1_arg1 0 ) ) ( * RFN1_arg2 1 ) ) ( * RFN1_arg3 1 ) ) RFN1_CT ) 1 ) ) ) 0 ) ( = ( + ( * ( - 1 ) lam9n0 ) ( * ( - 1 ) lam9n1 ) ( * Nl2arg11 lam9n12 ) ( * Nl2arg12 lam9n13 ) ( * Nl2arg13 lam9n14 ) ( - ( - RFN1_arg1 ) ) ) 0 ) ( = ( + ( * ( - 1 ) lam9n1 ) ( * 1 lam9n2 ) ( * 1 lam9n3 ) ( * ( - 1 ) lam9n6 ) ( * 1 lam9n10 ) ( * ( - 1 ) lam9n11 ) ( * Nl2arg21 lam9n12 ) ( * Nl2arg22 lam9n13 ) ( * Nl2arg23 lam9n14 ) ( - ( - ( + 0 ( * RFN1_arg2 1 ) ) RFN1_arg2 ) ) ) 0 ) ( = ( + ( * 1 lam9n4 ) ( * 1 lam9n6 ) ( * ( - 1 ) lam9n7 ) ( * ( - 2 ) lam9n10 ) ( * Nl2arg31 lam9n12 ) ( * Nl2arg32 lam9n13 ) ( * Nl2arg33 lam9n14 ) ( - ( - ( + 0 ( * RFN1_arg3 1 ) ) RFN1_arg3 ) ) ) 0 ) ( = ( + ( * ( - 1 ) lam9n2 ) ( * ( - 1 ) lam9n4 ) ( * ( - 1 ) lam9n8 ) ) 0 ) ( = ( * ( - 1 ) lam9n9 ) 0 ) ( = ( + ( * ( - 1 ) lam9n5 ) ( - ( + 0 ( * RFN1_arg1 1 ) ) ) ) 0 ) ( = ( * ( - 1 ) lam9n3 ) 0 ) ) ) ) ( and ( >= lam7n0 0 ) ( >= lam7n1 0 ) ( >= lam7n2 0 ) ( >= lam7n3 0 ) ( >= lam7n4 0 ) ( >= lam7n5 0 ) ( >= lam7n6 0 ) ( >= lam7n7 0 ) ( >= lam7n8 0 ) ( >= lam7n9 0 ) ( >= lam7n10 0 ) ( >= lam7n11 0 ) ( >= lam7n12 0 ) ( >= lam7n13 0 ) ( >= lam7n14 0 ) ( > ( + ( * 1 lam7n0 ) ( * 1 lam7n1 ) ( * 1 lam7n2 ) ( * 1 lam7n3 ) ( * 1 lam7n4 ) ( * 1 lam7n5 ) ( * 50001 lam7n10 ) ( * 50001 lam7n11 ) ( * Nl2CT1 lam7n12 ) ( * Nl2CT2 lam7n13 ) ( * Nl2CT3 lam7n14 ) ( - 1 ) ) 0 ) ( = ( + ( * ( - 1 ) lam7n0 ) ( * ( - 1 ) lam7n1 ) ( * Nl2arg11 lam7n12 ) ( * Nl2arg12 lam7n13 ) ( * Nl2arg13 lam7n14 ) ) 0 ) ( = ( + ( * ( - 1 ) lam7n1 ) ( * 1 lam7n2 ) ( * 1 lam7n3 ) ( * ( - 1 ) lam7n6 ) ( * 1 lam7n10 ) ( * ( - 1 ) lam7n11 ) ( * Nl2arg21 lam7n12 ) ( * Nl2arg22 lam7n13 ) ( * Nl2arg23 lam7n14 ) ) 0 ) ( = ( + ( * 1 lam7n4 ) ( * 1 lam7n6 ) ( * ( - 1 ) lam7n7 ) ( * ( - 2 ) lam7n10 ) ( * Nl2arg31 lam7n12 ) ( * Nl2arg32 lam7n13 ) ( * Nl2arg33 lam7n14 ) ) 0 ) ( = ( + ( * ( - 1 ) lam7n2 ) ( * ( - 1 ) lam7n4 ) ( * ( - 1 ) lam7n8 ) ) 0 ) ( = ( * ( - 1 ) lam7n9 ) 0 ) ( = ( * ( - 1 ) lam7n5 ) 0 ) ( = ( * ( - 1 ) lam7n3 ) 0 ) ) ))
(check-sat)
(exit)
